42
1000
200	4
199	2
198	2
197	1
196	1
195	1
193	3
192	1
191	3
190	1
189	1
188	3
187	1
186	7
185	4
184	3
181	1
180	2
179	3
178	1
177	3
176	3
175	2
174	2
173	1
172	1
171	6
169	2
168	4
167	2
166	4
164	1
162	1
161	1
160	4
159	2
158	2
157	5
156	3
155	1
154	3
150	2
